FEATURE= 1..25;
children= [{2,3,4},{5,6},{7,8,9},{10,11,12},{13,14},{},{15,16,17,18},{19},{20},{21,22},{24},{23,25},{},{},{},{},{},{},{},{},{},{},{},{},{}];
mandatory= [1,1,0,0,0,0,0,0,0,0,0,0,1,0,0,0,0,0,1,0,0,0,0,1,0];
includes= [{},{},{},{},{},{},{},{},{},{},{},{},{7},{},{},{},{},{},{},{},{},{},{},{},{}];
excludes= [{},{},{},{},{},{},{},{},{},{},{},{},{},{},{16},{15},{},{},{},{},{},{},{},{},{}];
compatibles= [{},{},{},{},{},{},{},{},{},{},{},{},{},{},{},{},{},{},{},{},{},{23},{22},{},{}];
equivalents= [{},{},{},{},{},{},{},{},{},{},{},{},{},{},{},{},{},{},{},{},{},{},{},{25},{24}];
differents= [{},{},{},{},{},{},{},{},{},{},{},{},{},{},{},{},{18},{17},{},{},{},{},{},{},{}];
min_children= [1,0,1,2,1,0,2,1,0,1,1,0,0,0,0,0,0,0,0,0,0,0,0,0,0];
max_children= [3,2,1,3,2,0,2,1,1,1,1,2,0,0,0,0,0,0,0,0,0,0,0,0,0];
